language ESSENCE' 1.0
$ loaded file: carseqdata/csplib-instance-65
letting numcars=200
letting numclasses=27
letting numoptions=5
letting optMax=[1, 2, 1, 2, 1]
letting windowSize=[2, 3, 3, 5, 5]
letting numberPerClass=[2, 1, 12, 21, 1, 6, 3, 8, 2, 17, 3, 13, 6, 2, 1, 4, 3, 3, 4, 8, 12, 24, 5, 6, 3, 29, 1]
letting optionsRequired=[[1, 0, 1, 1, 0], [1, 0, 1, 0, 1], [0, 1, 0, 1, 0], [0, 0, 0, 1, 0], [1, 1, 1, 0, 1], [1, 1, 0, 1, 0], [0, 0, 0, 1, 1], [1, 0, 0, 1, 0], [0, 1, 1, 1, 0], [1, 0, 0, 0, 0], [0, 1, 0, 1, 1], [0, 1, 1, 0, 0], [0, 0, 1, 0, 1], [0, 1, 1, 0, 1], [0, 0, 1, 1, 1], [1, 0, 1, 0, 0], [1, 1, 1, 0, 0], [1, 1, 0, 0, 1], [1, 0, 0, 0, 1], [0, 0, 1, 1, 0], [0, 0, 1, 0, 0], [1, 1, 0, 0, 0], [0, 1, 0, 0, 1], [0, 0, 0, 0, 0], [1, 1, 1, 1, 0], [0, 1, 0, 0, 0], [1, 0, 0, 0, 0]]
